Version identifier: 20.1.0.0 | 2020-11-10 | 9bedb6d68
Found incumbent of value 0.000000 after 0.00 sec. (0.00 ticks)
Tried aggregator 2 times.
MIP Presolve eliminated 96 rows and 40 columns.
MIP Presolve modified 19 coefficients.
Aggregator did 39 substitutions.
Reduced MIP has 32 rows, 34 columns, and 105 nonzeros.
Reduced MIP has 24 binaries, 0 generals, 0 SOSs, and 8 indicators.
Presolve time = 0.00 sec. (0.38 ticks)
Probing fixed 0 vars, tightened 5 bounds.
Probing changed sense of 5 constraints.
Probing time = 0.00 sec. (0.06 ticks)
Tried aggregator 1 time.
MIP Presolve eliminated 30 rows and 31 columns.
MIP Presolve modified 47 coefficients.
Reduced MIP has 2 rows, 3 columns, and 4 nonzeros.
Reduced MIP has 3 binaries, 0 generals, 0 SOSs, and 0 indicators.
Presolve time = 0.00 sec. (0.08 ticks)
Probing time = 0.00 sec. (0.00 ticks)
Tried aggregator 1 time.
MIP Presolve eliminated 2 rows and 3 columns.
All rows and columns eliminated.
Presolve time = 0.00 sec. (0.00 ticks)

Root node processing (before b&c):
  Real time             =    0.01 sec. (0.56 ticks)
Parallel b&c, 10 threads:
  Real time             =    0.00 sec. (0.00 ticks)
  Sync time (average)   =    0.00 sec.
  Wait time (average)   =    0.00 sec.
                          ------------
Total (root+branch&cut) =    0.01 sec. (0.56 ticks)
